NAME : amz0062.1611982_78982.tour
COMMENT : Cost = 1611982_78982
COMMENT : Found by LKH-AMZ [Keld Helsgaun] Sun May 11 14:23:56 2025
COMMENT : TW viol.: 0 #: 0
TYPE : TOUR
DIMENSION : 72
TOUR_SECTION
68
35
45
61
64
17
1
24
33
60
71
69
30
55
39
34
67
42
28
15
53
13
3
48
29
70
26
58
40
27
4
47
46
32
19
56
22
72
11
16
7
43
49
25
31
9
5
65
10
57
2
38
23
37
6
59
12
51
52
18
41
62
14
44
54
36
20
66
21
50
8
63
-1
EOF
